(set-info :smt-lib-version 2.6)
(set-logic QF_NIA)
(set-info :source |
Generated by: Cristina Borralleras, Daniel Larraz, Albert Oliveras, Enric Rodriguez-Carbonell, Albert Rubio
Generated on: 2017-04-27
Generator: VeryMax
Application: Termination proving
Target solver: barcelogic
|)
(set-info :license "https://creativecommons.org/licenses/by/4.0/")
(set-info :category "industrial")
(set-info :status unsat)
(declare-fun Nl2arg11 () Int)
(declare-fun Nl2arg21 () Int)
(declare-fun Nl2arg31 () Int)
(declare-fun lam0n0 () Int)
(declare-fun lam0n1 () Int)
(declare-fun lam0n2 () Int)
(declare-fun lam0n3 () Int)
(declare-fun lam0n5 () Int)
(declare-fun Nl2CT1 () Int)
(declare-fun lam0n4 () Int)
(declare-fun lam1n0 () Int)
(declare-fun lam1n1 () Int)
(declare-fun lam1n2 () Int)
(declare-fun lam1n3 () Int)
(declare-fun lam1n5 () Int)
(declare-fun lam1n4 () Int)
(declare-fun lam2n0 () Int)
(declare-fun lam2n1 () Int)
(declare-fun lam2n2 () Int)
(declare-fun lam2n3 () Int)
(declare-fun lam2n5 () Int)
(declare-fun lam2n4 () Int)
(declare-fun lam3n0 () Int)
(declare-fun lam3n1 () Int)
(declare-fun lam3n2 () Int)
(declare-fun lam3n3 () Int)
(declare-fun lam3n5 () Int)
(declare-fun lam3n4 () Int)
(declare-fun lam4n0 () Int)
(declare-fun lam4n1 () Int)
(declare-fun lam4n2 () Int)
(declare-fun lam4n3 () Int)
(declare-fun lam4n4 () Int)
(declare-fun lam4n5 () Int)
(declare-fun lam4n6 () Int)
(declare-fun lam4n7 () Int)
(declare-fun lam4n8 () Int)
(declare-fun lam4n10 () Int)
(declare-fun lam4n9 () Int)
(declare-fun lam5n0 () Int)
(declare-fun lam5n1 () Int)
(declare-fun lam5n2 () Int)
(declare-fun lam5n3 () Int)
(declare-fun lam5n4 () Int)
(declare-fun lam5n5 () Int)
(declare-fun lam5n6 () Int)
(declare-fun lam5n7 () Int)
(declare-fun lam5n8 () Int)
(declare-fun lam5n10 () Int)
(declare-fun lam5n9 () Int)
(declare-fun lam6n0 () Int)
(declare-fun lam6n1 () Int)
(declare-fun lam6n2 () Int)
(declare-fun lam6n3 () Int)
(declare-fun lam6n4 () Int)
(declare-fun lam6n5 () Int)
(declare-fun lam6n6 () Int)
(declare-fun lam6n7 () Int)
(declare-fun lam6n8 () Int)
(declare-fun lam6n10 () Int)
(declare-fun lam6n9 () Int)
(declare-fun lam7n0 () Int)
(declare-fun lam7n1 () Int)
(declare-fun lam7n2 () Int)
(declare-fun lam7n3 () Int)
(declare-fun lam7n4 () Int)
(declare-fun lam7n5 () Int)
(declare-fun lam7n6 () Int)
(declare-fun lam7n7 () Int)
(declare-fun lam7n8 () Int)
(declare-fun lam7n10 () Int)
(declare-fun lam7n9 () Int)
(declare-fun lam10n0 () Int)
(declare-fun lam10n1 () Int)
(declare-fun lam10n2 () Int)
(declare-fun lam10n3 () Int)
(declare-fun lam10n5 () Int)
(declare-fun RFN1_CT () Int)
(declare-fun RFN1_arg2 () Int)
(declare-fun RFN1_arg3 () Int)
(declare-fun lam10n4 () Int)
(declare-fun RFN1_arg1 () Int)
(declare-fun lam13n0 () Int)
(declare-fun lam13n1 () Int)
(declare-fun lam13n2 () Int)
(declare-fun lam13n3 () Int)
(declare-fun lam13n5 () Int)
(declare-fun lam13n4 () Int)
(declare-fun lam16n0 () Int)
(declare-fun lam16n1 () Int)
(declare-fun lam16n2 () Int)
(declare-fun lam16n3 () Int)
(declare-fun lam16n4 () Int)
(declare-fun lam16n5 () Int)
(declare-fun lam16n6 () Int)
(declare-fun lam16n7 () Int)
(declare-fun lam16n8 () Int)
(declare-fun lam16n10 () Int)
(declare-fun lam16n9 () Int)
(declare-fun lam19n0 () Int)
(declare-fun lam19n1 () Int)
(declare-fun lam19n2 () Int)
(declare-fun lam19n3 () Int)
(declare-fun lam19n4 () Int)
(declare-fun lam19n5 () Int)
(declare-fun lam19n6 () Int)
(declare-fun lam19n7 () Int)
(declare-fun lam19n8 () Int)
(declare-fun lam19n10 () Int)
(declare-fun lam19n9 () Int)
(declare-fun lam17n0 () Int)
(declare-fun lam17n1 () Int)
(declare-fun lam17n2 () Int)
(declare-fun lam17n3 () Int)
(declare-fun lam17n4 () Int)
(declare-fun lam17n5 () Int)
(declare-fun lam17n6 () Int)
(declare-fun lam17n7 () Int)
(declare-fun lam17n8 () Int)
(declare-fun lam17n10 () Int)
(declare-fun lam17n9 () Int)
(declare-fun lam18n0 () Int)
(declare-fun lam18n1 () Int)
(declare-fun lam18n2 () Int)
(declare-fun lam18n3 () Int)
(declare-fun lam18n4 () Int)
(declare-fun lam18n5 () Int)
(declare-fun lam18n6 () Int)
(declare-fun lam18n7 () Int)
(declare-fun lam18n8 () Int)
(declare-fun lam18n10 () Int)
(declare-fun lam18n9 () Int)
(declare-fun lam20n0 () Int)
(declare-fun lam20n1 () Int)
(declare-fun lam20n2 () Int)
(declare-fun lam20n3 () Int)
(declare-fun lam20n4 () Int)
(declare-fun lam20n5 () Int)
(declare-fun lam20n6 () Int)
(declare-fun lam20n7 () Int)
(declare-fun lam20n8 () Int)
(declare-fun lam20n10 () Int)
(declare-fun lam20n9 () Int)
(assert ( and ( <= ( - 1 ) Nl2arg11 ) ( <= Nl2arg11 1 ) ( <= ( - 1 ) Nl2arg21 ) ( <= Nl2arg21 1 ) ( <= ( - 1 ) Nl2arg31 ) ( <= Nl2arg31 1 ) ))
(assert ( or ( and ( >= lam0n0 0 ) ( >= lam0n1 0 ) ( >= lam0n2 0 ) ( >= lam0n3 0 ) ( >= lam0n5 0 ) ( > ( + ( * 1 lam0n2 ) ( * ( - 4 ) lam0n3 ) ( * Nl2CT1 lam0n5 ) ( - 1 ) ) 0 ) ( = ( + ( * ( - 1 ) lam0n0 ) ( * 1 lam0n3 ) ( * 1 lam0n4 ) ( * Nl2arg11 lam0n5 ) ) 0 ) ( = ( + ( * 1 lam0n1 ) ( * 1 lam0n2 ) ( * 1 lam0n4 ) ( * Nl2arg21 lam0n5 ) ) 0 ) ( = ( + ( * 1 lam0n0 ) ( * ( - 1 ) lam0n1 ) ( * ( - 1 ) lam0n3 ) ( * Nl2arg31 lam0n5 ) ) 0 ) ) ( and ( >= lam1n0 0 ) ( >= lam1n1 0 ) ( >= lam1n2 0 ) ( >= lam1n3 0 ) ( >= lam1n5 0 ) ( > ( + ( * 1 lam1n2 ) ( * ( - 4 ) lam1n3 ) ( * Nl2CT1 lam1n5 ) ( - 1 ( + ( + Nl2CT1 ( * Nl2arg21 0 ) ) ( * Nl2arg31 0 ) ) ) ) 0 ) ( = ( + ( * ( - 1 ) lam1n0 ) ( * 1 lam1n3 ) ( * 1 lam1n4 ) ( * Nl2arg11 lam1n5 ) ( - ( + ( + 0 Nl2arg11 ) ( * Nl2arg21 ( - 1 ) ) ) ) ) 0 ) ( = ( + ( * 1 lam1n1 ) ( * 1 lam1n2 ) ( * 1 lam1n4 ) ( * Nl2arg21 lam1n5 ) ) 0 ) ( = ( + ( * 1 lam1n0 ) ( * ( - 1 ) lam1n1 ) ( * ( - 1 ) lam1n3 ) ( * Nl2arg31 lam1n5 ) ( - ( + 0 ( * Nl2arg31 ( - 1 ) ) ) ) ) 0 ) ) ))
(assert ( or ( and ( >= lam2n0 0 ) ( >= lam2n1 0 ) ( >= lam2n2 0 ) ( >= lam2n3 0 ) ( >= lam2n5 0 ) ( > ( + ( * 1 lam2n1 ) ( * 5 lam2n2 ) ( * ( - 4 ) lam2n3 ) ( * Nl2CT1 lam2n5 ) ( - 1 ) ) 0 ) ( = ( + ( * ( - 1 ) lam2n2 ) ( * 1 lam2n3 ) ( * 1 lam2n4 ) ( * Nl2arg11 lam2n5 ) ) 0 ) ( = ( + ( * 1 lam2n0 ) ( * 1 lam2n1 ) ( * 1 lam2n4 ) ( * Nl2arg21 lam2n5 ) ) 0 ) ( = ( + ( * ( - 1 ) lam2n0 ) ( * 1 lam2n2 ) ( * 1 lam2n3 ) ( * Nl2arg31 lam2n5 ) ) 0 ) ) ( and ( >= lam3n0 0 ) ( >= lam3n1 0 ) ( >= lam3n2 0 ) ( >= lam3n3 0 ) ( >= lam3n5 0 ) ( > ( + ( * 1 lam3n1 ) ( * 5 lam3n2 ) ( * ( - 4 ) lam3n3 ) ( * Nl2CT1 lam3n5 ) ( - 1 ( + ( + Nl2CT1 ( * Nl2arg21 0 ) ) ( * Nl2arg31 0 ) ) ) ) 0 ) ( = ( + ( * ( - 1 ) lam3n2 ) ( * 1 lam3n3 ) ( * 1 lam3n4 ) ( * Nl2arg11 lam3n5 ) ( - ( + ( + 0 Nl2arg11 ) ( * Nl2arg21 ( - 1 ) ) ) ) ) 0 ) ( = ( + ( * 1 lam3n0 ) ( * 1 lam3n1 ) ( * 1 lam3n4 ) ( * Nl2arg21 lam3n5 ) ) 0 ) ( = ( + ( * ( - 1 ) lam3n0 ) ( * 1 lam3n2 ) ( * 1 lam3n3 ) ( * Nl2arg31 lam3n5 ) ( - ( + 0 ( * Nl2arg31 ( - 1 ) ) ) ) ) 0 ) ) ))
(assert ( or ( and ( >= lam4n0 0 ) ( >= lam4n1 0 ) ( >= lam4n2 0 ) ( >= lam4n3 0 ) ( >= lam4n4 0 ) ( >= lam4n5 0 ) ( >= lam4n6 0 ) ( >= lam4n7 0 ) ( >= lam4n8 0 ) ( >= lam4n10 0 ) ( > ( + ( * 5 lam4n2 ) ( * 5 lam4n3 ) ( * 50001 lam4n4 ) ( * 50001 lam4n5 ) ( * 50001 lam4n6 ) ( * 50001 lam4n7 ) ( * 50001 lam4n8 ) ( * Nl2CT1 lam4n10 ) ( - 1 ) ) 0 ) ( = ( + ( * ( - 1 ) lam4n2 ) ( * ( - 1 ) lam4n3 ) ( * 1 lam4n4 ) ( * ( - 1 ) lam4n5 ) ( * ( - 1 ) lam4n6 ) ( * ( - 2 ) lam4n7 ) ( * 1 lam4n9 ) ( * Nl2arg11 lam4n10 ) ) 0 ) ( = ( + ( * 1 lam4n0 ) ( * 2 lam4n4 ) ( * 1 lam4n6 ) ( * ( - 1 ) lam4n7 ) ( * 1 lam4n8 ) ( * 1 lam4n9 ) ( * Nl2arg21 lam4n10 ) ) 0 ) ( = ( + ( * ( - 1 ) lam4n0 ) ( * 1 lam4n1 ) ( * 1 lam4n2 ) ( * ( - 1 ) lam4n3 ) ( * Nl2arg31 lam4n10 ) ) 0 ) ) ( and ( >= lam5n0 0 ) ( >= lam5n1 0 ) ( >= lam5n2 0 ) ( >= lam5n3 0 ) ( >= lam5n4 0 ) ( >= lam5n5 0 ) ( >= lam5n6 0 ) ( >= lam5n7 0 ) ( >= lam5n8 0 ) ( >= lam5n10 0 ) ( > ( + ( * 5 lam5n2 ) ( * 5 lam5n3 ) ( * 50001 lam5n4 ) ( * 50001 lam5n5 ) ( * 50001 lam5n6 ) ( * 50001 lam5n7 ) ( * 50001 lam5n8 ) ( * Nl2CT1 lam5n10 ) ( - 1 ( + ( + ( + Nl2CT1 ( * Nl2arg11 1 ) ) ( * Nl2arg21 ( - 1 ) ) ) ( * Nl2arg31 ( - 1 ) ) ) ) ) 0 ) ( = ( + ( * ( - 1 ) lam5n2 ) ( * ( - 1 ) lam5n3 ) ( * 1 lam5n4 ) ( * ( - 1 ) lam5n5 ) ( * ( - 1 ) lam5n6 ) ( * ( - 2 ) lam5n7 ) ( * 1 lam5n9 ) ( * Nl2arg11 lam5n10 ) ( - ( + ( + 0 ( * Nl2arg11 1 ) ) ( * Nl2arg21 ( - 1 ) ) ) ) ) 0 ) ( = ( + ( * 1 lam5n0 ) ( * 2 lam5n4 ) ( * 1 lam5n6 ) ( * ( - 1 ) lam5n7 ) ( * 1 lam5n8 ) ( * 1 lam5n9 ) ( * Nl2arg21 lam5n10 ) ) 0 ) ( = ( + ( * ( - 1 ) lam5n0 ) ( * 1 lam5n1 ) ( * 1 lam5n2 ) ( * ( - 1 ) lam5n3 ) ( * Nl2arg31 lam5n10 ) ( - ( + 0 ( * Nl2arg31 1 ) ) ) ) 0 ) ) ))
(assert ( or ( and ( >= lam6n0 0 ) ( >= lam6n1 0 ) ( >= lam6n2 0 ) ( >= lam6n3 0 ) ( >= lam6n4 0 ) ( >= lam6n5 0 ) ( >= lam6n6 0 ) ( >= lam6n7 0 ) ( >= lam6n8 0 ) ( >= lam6n10 0 ) ( > ( + ( * 5 lam6n1 ) ( * 5 lam6n2 ) ( * 2 lam6n3 ) ( * 50001 lam6n4 ) ( * 50001 lam6n5 ) ( * 50001 lam6n6 ) ( * 50001 lam6n7 ) ( * 50001 lam6n8 ) ( * Nl2CT1 lam6n10 ) ( - 1 ) ) 0 ) ( = ( + ( * ( - 1 ) lam6n1 ) ( * ( - 1 ) lam6n2 ) ( * 1 lam6n4 ) ( * ( - 1 ) lam6n5 ) ( * ( - 1 ) lam6n6 ) ( * ( - 2 ) lam6n7 ) ( * 1 lam6n9 ) ( * Nl2arg11 lam6n10 ) ) 0 ) ( = ( + ( * 1 lam6n0 ) ( * 2 lam6n4 ) ( * 1 lam6n6 ) ( * ( - 1 ) lam6n7 ) ( * 1 lam6n8 ) ( * 1 lam6n9 ) ( * Nl2arg21 lam6n10 ) ) 0 ) ( = ( + ( * ( - 1 ) lam6n0 ) ( * 1 lam6n1 ) ( * ( - 1 ) lam6n2 ) ( * ( - 1 ) lam6n3 ) ( * Nl2arg31 lam6n10 ) ) 0 ) ) ( and ( >= lam7n0 0 ) ( >= lam7n1 0 ) ( >= lam7n2 0 ) ( >= lam7n3 0 ) ( >= lam7n4 0 ) ( >= lam7n5 0 ) ( >= lam7n6 0 ) ( >= lam7n7 0 ) ( >= lam7n8 0 ) ( >= lam7n10 0 ) ( > ( + ( * 5 lam7n1 ) ( * 5 lam7n2 ) ( * 2 lam7n3 ) ( * 50001 lam7n4 ) ( * 50001 lam7n5 ) ( * 50001 lam7n6 ) ( * 50001 lam7n7 ) ( * 50001 lam7n8 ) ( * Nl2CT1 lam7n10 ) ( - 1 ( + ( + ( + Nl2CT1 ( * Nl2arg11 1 ) ) ( * Nl2arg21 ( - 1 ) ) ) ( * Nl2arg31 ( - 1 ) ) ) ) ) 0 ) ( = ( + ( * ( - 1 ) lam7n1 ) ( * ( - 1 ) lam7n2 ) ( * 1 lam7n4 ) ( * ( - 1 ) lam7n5 ) ( * ( - 1 ) lam7n6 ) ( * ( - 2 ) lam7n7 ) ( * 1 lam7n9 ) ( * Nl2arg11 lam7n10 ) ( - ( + ( + 0 ( * Nl2arg11 1 ) ) ( * Nl2arg21 ( - 1 ) ) ) ) ) 0 ) ( = ( + ( * 1 lam7n0 ) ( * 2 lam7n4 ) ( * 1 lam7n6 ) ( * ( - 1 ) lam7n7 ) ( * 1 lam7n8 ) ( * 1 lam7n9 ) ( * Nl2arg21 lam7n10 ) ) 0 ) ( = ( + ( * ( - 1 ) lam7n0 ) ( * 1 lam7n1 ) ( * ( - 1 ) lam7n2 ) ( * ( - 1 ) lam7n3 ) ( * Nl2arg31 lam7n10 ) ( - ( + 0 ( * Nl2arg31 1 ) ) ) ) 0 ) ) ))
(assert ( and ( or ( and ( >= lam0n0 0 ) ( >= lam0n1 0 ) ( >= lam0n2 0 ) ( >= lam0n3 0 ) ( >= lam0n5 0 ) ( > ( + ( * 1 lam0n2 ) ( * ( - 4 ) lam0n3 ) ( * Nl2CT1 lam0n5 ) ( - 1 ) ) 0 ) ( = ( + ( * ( - 1 ) lam0n0 ) ( * 1 lam0n3 ) ( * 1 lam0n4 ) ( * Nl2arg11 lam0n5 ) ) 0 ) ( = ( + ( * 1 lam0n1 ) ( * 1 lam0n2 ) ( * 1 lam0n4 ) ( * Nl2arg21 lam0n5 ) ) 0 ) ( = ( + ( * 1 lam0n0 ) ( * ( - 1 ) lam0n1 ) ( * ( - 1 ) lam0n3 ) ( * Nl2arg31 lam0n5 ) ) 0 ) ) ( and ( >= lam10n0 0 ) ( >= lam10n1 0 ) ( >= lam10n2 0 ) ( >= lam10n3 0 ) ( >= lam10n5 0 ) ( > ( + ( * 1 lam10n2 ) ( * ( - 4 ) lam10n3 ) ( * Nl2CT1 lam10n5 ) ( - 1 ( - ( + ( + RFN1_CT ( * RFN1_arg2 0 ) ) ( * RFN1_arg3 0 ) ) RFN1_CT ) ) ) 0 ) ( = ( + ( * ( - 1 ) lam10n0 ) ( * 1 lam10n3 ) ( * 1 lam10n4 ) ( * Nl2arg11 lam10n5 ) ( - ( - ( + ( + 0 RFN1_arg1 ) ( * RFN1_arg2 ( - 1 ) ) ) RFN1_arg1 ) ) ) 0 ) ( = ( + ( * 1 lam10n1 ) ( * 1 lam10n2 ) ( * 1 lam10n4 ) ( * Nl2arg21 lam10n5 ) ( - ( - RFN1_arg2 ) ) ) 0 ) ( = ( + ( * 1 lam10n0 ) ( * ( - 1 ) lam10n1 ) ( * ( - 1 ) lam10n3 ) ( * Nl2arg31 lam10n5 ) ( - ( - ( + 0 ( * RFN1_arg3 ( - 1 ) ) ) RFN1_arg3 ) ) ) 0 ) ) ) ( or ( and ( >= lam2n0 0 ) ( >= lam2n1 0 ) ( >= lam2n2 0 ) ( >= lam2n3 0 ) ( >= lam2n5 0 ) ( > ( + ( * 1 lam2n1 ) ( * 5 lam2n2 ) ( * ( - 4 ) lam2n3 ) ( * Nl2CT1 lam2n5 ) ( - 1 ) ) 0 ) ( = ( + ( * ( - 1 ) lam2n2 ) ( * 1 lam2n3 ) ( * 1 lam2n4 ) ( * Nl2arg11 lam2n5 ) ) 0 ) ( = ( + ( * 1 lam2n0 ) ( * 1 lam2n1 ) ( * 1 lam2n4 ) ( * Nl2arg21 lam2n5 ) ) 0 ) ( = ( + ( * ( - 1 ) lam2n0 ) ( * 1 lam2n2 ) ( * 1 lam2n3 ) ( * Nl2arg31 lam2n5 ) ) 0 ) ) ( and ( >= lam13n0 0 ) ( >= lam13n1 0 ) ( >= lam13n2 0 ) ( >= lam13n3 0 ) ( >= lam13n5 0 ) ( > ( + ( * 1 lam13n1 ) ( * 5 lam13n2 ) ( * ( - 4 ) lam13n3 ) ( * Nl2CT1 lam13n5 ) ( - 1 ( - ( + ( + RFN1_CT ( * RFN1_arg2 0 ) ) ( * RFN1_arg3 0 ) ) RFN1_CT ) ) ) 0 ) ( = ( + ( * ( - 1 ) lam13n2 ) ( * 1 lam13n3 ) ( * 1 lam13n4 ) ( * Nl2arg11 lam13n5 ) ( - ( - ( + ( + 0 RFN1_arg1 ) ( * RFN1_arg2 ( - 1 ) ) ) RFN1_arg1 ) ) ) 0 ) ( = ( + ( * 1 lam13n0 ) ( * 1 lam13n1 ) ( * 1 lam13n4 ) ( * Nl2arg21 lam13n5 ) ( - ( - RFN1_arg2 ) ) ) 0 ) ( = ( + ( * ( - 1 ) lam13n0 ) ( * 1 lam13n2 ) ( * 1 lam13n3 ) ( * Nl2arg31 lam13n5 ) ( - ( - ( + 0 ( * RFN1_arg3 ( - 1 ) ) ) RFN1_arg3 ) ) ) 0 ) ) ) ( or ( and ( >= lam4n0 0 ) ( >= lam4n1 0 ) ( >= lam4n2 0 ) ( >= lam4n3 0 ) ( >= lam4n4 0 ) ( >= lam4n5 0 ) ( >= lam4n6 0 ) ( >= lam4n7 0 ) ( >= lam4n8 0 ) ( >= lam4n10 0 ) ( > ( + ( * 5 lam4n2 ) ( * 5 lam4n3 ) ( * 50001 lam4n4 ) ( * 50001 lam4n5 ) ( * 50001 lam4n6 ) ( * 50001 lam4n7 ) ( * 50001 lam4n8 ) ( * Nl2CT1 lam4n10 ) ( - 1 ) ) 0 ) ( = ( + ( * ( - 1 ) lam4n2 ) ( * ( - 1 ) lam4n3 ) ( * 1 lam4n4 ) ( * ( - 1 ) lam4n5 ) ( * ( - 1 ) lam4n6 ) ( * ( - 2 ) lam4n7 ) ( * 1 lam4n9 ) ( * Nl2arg11 lam4n10 ) ) 0 ) ( = ( + ( * 1 lam4n0 ) ( * 2 lam4n4 ) ( * 1 lam4n6 ) ( * ( - 1 ) lam4n7 ) ( * 1 lam4n8 ) ( * 1 lam4n9 ) ( * Nl2arg21 lam4n10 ) ) 0 ) ( = ( + ( * ( - 1 ) lam4n0 ) ( * 1 lam4n1 ) ( * 1 lam4n2 ) ( * ( - 1 ) lam4n3 ) ( * Nl2arg31 lam4n10 ) ) 0 ) ) ( and ( >= lam16n0 0 ) ( >= lam16n1 0 ) ( >= lam16n2 0 ) ( >= lam16n3 0 ) ( >= lam16n4 0 ) ( >= lam16n5 0 ) ( >= lam16n6 0 ) ( >= lam16n7 0 ) ( >= lam16n8 0 ) ( >= lam16n10 0 ) ( > ( + ( * 5 lam16n2 ) ( * 5 lam16n3 ) ( * 50001 lam16n4 ) ( * 50001 lam16n5 ) ( * 50001 lam16n6 ) ( * 50001 lam16n7 ) ( * 50001 lam16n8 ) ( * Nl2CT1 lam16n10 ) ( - 1 ( - ( + ( + ( + RFN1_CT ( * RFN1_arg1 1 ) ) ( * RFN1_arg2 ( - 1 ) ) ) ( * RFN1_arg3 ( - 1 ) ) ) RFN1_CT ) ) ) 0 ) ( = ( + ( * ( - 1 ) lam16n2 ) ( * ( - 1 ) lam16n3 ) ( * 1 lam16n4 ) ( * ( - 1 ) lam16n5 ) ( * ( - 1 ) lam16n6 ) ( * ( - 2 ) lam16n7 ) ( * 1 lam16n9 ) ( * Nl2arg11 lam16n10 ) ( - ( - ( + ( + 0 ( * RFN1_arg1 1 ) ) ( * RFN1_arg2 ( - 1 ) ) ) RFN1_arg1 ) ) ) 0 ) ( = ( + ( * 1 lam16n0 ) ( * 2 lam16n4 ) ( * 1 lam16n6 ) ( * ( - 1 ) lam16n7 ) ( * 1 lam16n8 ) ( * 1 lam16n9 ) ( * Nl2arg21 lam16n10 ) ( - ( - RFN1_arg2 ) ) ) 0 ) ( = ( + ( * ( - 1 ) lam16n0 ) ( * 1 lam16n1 ) ( * 1 lam16n2 ) ( * ( - 1 ) lam16n3 ) ( * Nl2arg31 lam16n10 ) ( - ( - ( + 0 ( * RFN1_arg3 1 ) ) RFN1_arg3 ) ) ) 0 ) ) ) ( or ( and ( >= lam6n0 0 ) ( >= lam6n1 0 ) ( >= lam6n2 0 ) ( >= lam6n3 0 ) ( >= lam6n4 0 ) ( >= lam6n5 0 ) ( >= lam6n6 0 ) ( >= lam6n7 0 ) ( >= lam6n8 0 ) ( >= lam6n10 0 ) ( > ( + ( * 5 lam6n1 ) ( * 5 lam6n2 ) ( * 2 lam6n3 ) ( * 50001 lam6n4 ) ( * 50001 lam6n5 ) ( * 50001 lam6n6 ) ( * 50001 lam6n7 ) ( * 50001 lam6n8 ) ( * Nl2CT1 lam6n10 ) ( - 1 ) ) 0 ) ( = ( + ( * ( - 1 ) lam6n1 ) ( * ( - 1 ) lam6n2 ) ( * 1 lam6n4 ) ( * ( - 1 ) lam6n5 ) ( * ( - 1 ) lam6n6 ) ( * ( - 2 ) lam6n7 ) ( * 1 lam6n9 ) ( * Nl2arg11 lam6n10 ) ) 0 ) ( = ( + ( * 1 lam6n0 ) ( * 2 lam6n4 ) ( * 1 lam6n6 ) ( * ( - 1 ) lam6n7 ) ( * 1 lam6n8 ) ( * 1 lam6n9 ) ( * Nl2arg21 lam6n10 ) ) 0 ) ( = ( + ( * ( - 1 ) lam6n0 ) ( * 1 lam6n1 ) ( * ( - 1 ) lam6n2 ) ( * ( - 1 ) lam6n3 ) ( * Nl2arg31 lam6n10 ) ) 0 ) ) ( and ( >= lam19n0 0 ) ( >= lam19n1 0 ) ( >= lam19n2 0 ) ( >= lam19n3 0 ) ( >= lam19n4 0 ) ( >= lam19n5 0 ) ( >= lam19n6 0 ) ( >= lam19n7 0 ) ( >= lam19n8 0 ) ( >= lam19n10 0 ) ( > ( + ( * 5 lam19n1 ) ( * 5 lam19n2 ) ( * 2 lam19n3 ) ( * 50001 lam19n4 ) ( * 50001 lam19n5 ) ( * 50001 lam19n6 ) ( * 50001 lam19n7 ) ( * 50001 lam19n8 ) ( * Nl2CT1 lam19n10 ) ( - 1 ( - ( + ( + ( + RFN1_CT ( * RFN1_arg1 1 ) ) ( * RFN1_arg2 ( - 1 ) ) ) ( * RFN1_arg3 ( - 1 ) ) ) RFN1_CT ) ) ) 0 ) ( = ( + ( * ( - 1 ) lam19n1 ) ( * ( - 1 ) lam19n2 ) ( * 1 lam19n4 ) ( * ( - 1 ) lam19n5 ) ( * ( - 1 ) lam19n6 ) ( * ( - 2 ) lam19n7 ) ( * 1 lam19n9 ) ( * Nl2arg11 lam19n10 ) ( - ( - ( + ( + 0 ( * RFN1_arg1 1 ) ) ( * RFN1_arg2 ( - 1 ) ) ) RFN1_arg1 ) ) ) 0 ) ( = ( + ( * 1 lam19n0 ) ( * 2 lam19n4 ) ( * 1 lam19n6 ) ( * ( - 1 ) lam19n7 ) ( * 1 lam19n8 ) ( * 1 lam19n9 ) ( * Nl2arg21 lam19n10 ) ( - ( - RFN1_arg2 ) ) ) 0 ) ( = ( + ( * ( - 1 ) lam19n0 ) ( * 1 lam19n1 ) ( * ( - 1 ) lam19n2 ) ( * ( - 1 ) lam19n3 ) ( * Nl2arg31 lam19n10 ) ( - ( - ( + 0 ( * RFN1_arg3 1 ) ) RFN1_arg3 ) ) ) 0 ) ) ) ))
(assert ( and ( and ( and ( >= lam17n0 0 ) ( >= lam17n1 0 ) ( >= lam17n2 0 ) ( >= lam17n3 0 ) ( >= lam17n4 0 ) ( >= lam17n5 0 ) ( >= lam17n6 0 ) ( >= lam17n7 0 ) ( >= lam17n8 0 ) ( >= lam17n10 0 ) ( > ( + ( * 5 lam17n1 ) ( * 5 lam17n2 ) ( * 2 lam17n3 ) ( * 50001 lam17n4 ) ( * 50001 lam17n5 ) ( * 50001 lam17n6 ) ( * 50001 lam17n7 ) ( * 50001 lam17n8 ) ( * Nl2CT1 lam17n10 ) ( - 1 ( - RFN1_CT ) ) ) 0 ) ( = ( + ( * ( - 1 ) lam17n1 ) ( * ( - 1 ) lam17n2 ) ( * 1 lam17n4 ) ( * ( - 1 ) lam17n5 ) ( * ( - 1 ) lam17n6 ) ( * ( - 2 ) lam17n7 ) ( * 1 lam17n9 ) ( * Nl2arg11 lam17n10 ) ( - ( - RFN1_arg1 ) ) ) 0 ) ( = ( + ( * 1 lam17n0 ) ( * 2 lam17n4 ) ( * 1 lam17n6 ) ( * ( - 1 ) lam17n7 ) ( * 1 lam17n8 ) ( * 1 lam17n9 ) ( * Nl2arg21 lam17n10 ) ( - ( - RFN1_arg2 ) ) ) 0 ) ( = ( + ( * ( - 1 ) lam17n0 ) ( * 1 lam17n1 ) ( * ( - 1 ) lam17n2 ) ( * ( - 1 ) lam17n3 ) ( * Nl2arg31 lam17n10 ) ( - ( - RFN1_arg3 ) ) ) 0 ) ) ( and ( >= lam18n0 0 ) ( >= lam18n1 0 ) ( >= lam18n2 0 ) ( >= lam18n3 0 ) ( >= lam18n4 0 ) ( >= lam18n5 0 ) ( >= lam18n6 0 ) ( >= lam18n7 0 ) ( >= lam18n8 0 ) ( >= lam18n10 0 ) ( > ( + ( * 5 lam18n1 ) ( * 5 lam18n2 ) ( * 2 lam18n3 ) ( * 50001 lam18n4 ) ( * 50001 lam18n5 ) ( * 50001 lam18n6 ) ( * 50001 lam18n7 ) ( * 50001 lam18n8 ) ( * Nl2CT1 lam18n10 ) ( - 1 ( + ( - ( + ( + ( + RFN1_CT ( * RFN1_arg1 1 ) ) ( * RFN1_arg2 ( - 1 ) ) ) ( * RFN1_arg3 ( - 1 ) ) ) RFN1_CT ) 1 ) ) ) 0 ) ( = ( + ( * ( - 1 ) lam18n1 ) ( * ( - 1 ) lam18n2 ) ( * 1 lam18n4 ) ( * ( - 1 ) lam18n5 ) ( * ( - 1 ) lam18n6 ) ( * ( - 2 ) lam18n7 ) ( * 1 lam18n9 ) ( * Nl2arg11 lam18n10 ) ( - ( - ( + ( + 0 ( * RFN1_arg1 1 ) ) ( * RFN1_arg2 ( - 1 ) ) ) RFN1_arg1 ) ) ) 0 ) ( = ( + ( * 1 lam18n0 ) ( * 2 lam18n4 ) ( * 1 lam18n6 ) ( * ( - 1 ) lam18n7 ) ( * 1 lam18n8 ) ( * 1 lam18n9 ) ( * Nl2arg21 lam18n10 ) ( - ( - RFN1_arg2 ) ) ) 0 ) ( = ( + ( * ( - 1 ) lam18n0 ) ( * 1 lam18n1 ) ( * ( - 1 ) lam18n2 ) ( * ( - 1 ) lam18n3 ) ( * Nl2arg31 lam18n10 ) ( - ( - ( + 0 ( * RFN1_arg3 1 ) ) RFN1_arg3 ) ) ) 0 ) ) ) ( and ( >= lam20n0 0 ) ( >= lam20n1 0 ) ( >= lam20n2 0 ) ( >= lam20n3 0 ) ( >= lam20n4 0 ) ( >= lam20n5 0 ) ( >= lam20n6 0 ) ( >= lam20n7 0 ) ( >= lam20n8 0 ) ( >= lam20n10 0 ) ( > ( + ( * 5 lam20n1 ) ( * 5 lam20n2 ) ( * 2 lam20n3 ) ( * 50001 lam20n4 ) ( * 50001 lam20n5 ) ( * 50001 lam20n6 ) ( * 50001 lam20n7 ) ( * 50001 lam20n8 ) ( * ( + ( - Nl2CT1 ) 1 ) lam20n10 ) ( - 1 ) ) 0 ) ( = ( + ( * ( - 1 ) lam20n1 ) ( * ( - 1 ) lam20n2 ) ( * 1 lam20n4 ) ( * ( - 1 ) lam20n5 ) ( * ( - 1 ) lam20n6 ) ( * ( - 2 ) lam20n7 ) ( * 1 lam20n9 ) ( * ( - Nl2arg11 ) lam20n10 ) ) 0 ) ( = ( + ( * 1 lam20n0 ) ( * 2 lam20n4 ) ( * 1 lam20n6 ) ( * ( - 1 ) lam20n7 ) ( * 1 lam20n8 ) ( * 1 lam20n9 ) ( * ( - Nl2arg21 ) lam20n10 ) ) 0 ) ( = ( + ( * ( - 1 ) lam20n0 ) ( * 1 lam20n1 ) ( * ( - 1 ) lam20n2 ) ( * ( - 1 ) lam20n3 ) ( * ( - Nl2arg31 ) lam20n10 ) ) 0 ) ) ))
(check-sat)
(exit)
